100 8
795 790
931 823
376 441
359 757
847 298
143 300
269 412
656 629
552 118
224 439
527 280
619 594
666 560
738 717
686 628
560 269
554 435
515 571
509 253
294 391
484 109
227 453
546 791
647 232
539 336
279 425
495 335
383 385
761 485
508 533
781 394
570 606
473 156
397 825
398 528
684 564
479 326
772 381
381 565
318 386
340 467
865 667
814 706
636 383
779 408
193 445
636 363
943 796
602 591
836 771
173 295
309 687
450 548
480 340
774 456
706 683
665 381
592 162
773 323
520 182
848 668
502 190
478 243
188 281
693 650
397 752
745 675
336 413
436 782
667 364
239 762
392 474
314 435
532 746
537 295
878 420
570 489
208 690
241 370
268 387
418 560
503 865
648 369
689 204
316 412
921 528
710 717
302 714
227 358
370 381
896 397
671 326
405 573
691 459
766 442
873 312
239 397
535 186
257 412
820 309
